NAME : cluster_netgen
COMMENT : cl=5
TYPE : TSP
DIMENSION : 50
EDGE_WEIGHT_TYPE : EUC_2D
NODE_COORD_SECTION
1 734039 519995
2 653060 544115
3 717565 555873
4 798003 548635
5 578761 589834
6 695546 528952
7 635955 503880
8 669747 496201
9 628429 505932
10 800902 505464
11 516106 170067
12 582249 212312
13 491639 267644
14 542603 240253
15 575408 191069
16 631347 166026
17 607191 147427
18 547671 81133
19 471301 150939
20 478531 196830
21 95040 728265
22 226769 675967
23 186201 791362
24 175286 722267
25 104981 795956
26 28203 726362
27 84457 758148
28 162586 753613
29 148616 744169
30 116798 751822
31 913143 830429
32 888853 793309
33 929640 894384
34 854872 850179
35 870910 813066
36 974120 840040
37 940315 800687
38 930984 772628
39 923492 822156
40 970603 832565
41 452407 121632
42 399350 115648
43 446296 144368
44 466516 184110
45 381929 132419
46 283435 49134
47 440212 82806
48 290806 37727
49 382047 102374
50 426418 91759

EOF
